InboundTrucks  = 120;
OutboundTrucks = 60;
InboundDoors   = 10;
OutboundDoors  = 10;
ReleaseTime    = [81,14,3,94,35,31,28,17,94,13,86,94,114,69,11,75,54,4,3,11,27,29,64,77,3,71,25,91,83,89,69,53,28,57,75,35,103,111,0,97,103,20,89,54,43,35,19,27,97,43,13,11,48,12,45,108,44,77,33,103,5,93,58,68,15,118,48,10,70,37,106,80,79,113,110,46,73,24,90,8,5,84,29,98,37,10,109,29,110,12,48,35,58,81,106,46,20,47,45,26,85,34,89,119,87,82,9,77,81,21,68,93,31,20,59,48,34,118,81,88];
UnloadTime     = [45,24,30,13,24,12,30,35,27,14,23,30,23,41,35,39,19,26,18,25,45,44,26,37,35,33,24,18,42,41,15,13,17,19,20,37,14,34,34,39,43,26,45,10,17,44,27,31,17,28,37,20,39,10,26,42,21,42,16,29,42,22,19,33,20,44,43,10,30,41,11,17,33,29,25,13,25,15,15,41,14,44,18,18,40,45,20,26,43,37,23,44,22,29,35,33,38,43,38,17,25,24,14,31,11,45,24,24,10,14,13,24,14,12,31,14,42,25,27,41];
LoadTime       = [11,22,9,28,23,23,20,12,30,20,30,18,11,8,8,26,18,16,18,18,19,28,6,26,25,25,8,6,17,28,15,30,8,12,11,11,22,19,9,18,10,13,19,12,7,19,30,22,8,6,25,22,5,7,29,12,10,18,20,20];
TransferTime   = [| 35,0,10,0,0,0,0,0,0,0,0,0,28,13,0,0,0,47,0,0,0,42,21,14,0,17,0,0,0,15,0,0,0,0,30,35,29,0,0,0,49,0,0,23,0,32,0,0,0,44,0,0,0,0,45,0,0,0,17,0 | 0,28,0,0,50,0,0,0,0,50,0,0,18,0,0,0,0,0,14,0,0,12,0,0,18,33,0,0,0,0,25,0,0,0,0,0,0,0,20,0,0,0,31,0,0,0,0,20,0,12,0,39,0,0,0,22,0,0,27,0 | 0,0,0,0,26,26,48,0,0,0,0,0,0,0,0,0,44,0,0,0,37,31,0,0,29,0,0,0,0,0,34,0,0,0,0,0,28,47,0,0,0,0,0,0,0,0,0,0,0,0,25,0,22,12,40,0,0,0,0,0 | 0,0,0,10,0,0,0,0,43,0,0,0,18,0,0,0,0,0,0,0,0,0,0,0,0,0,0,0,50,0,0,0,38,28,31,0,0,24,0,23,36,0,0,36,0,0,0,46,0,32,0,0,0,0,0,0,0,0,0,0 | 0,0,0,0,0,0,0,0,0,0,0,0,37,39,26,0,30,0,0,0,0,0,0,0,0,32,14,0,0,0,0,11,0,40,0,0,26,0,48,0,0,0,29,11,0,0,0,0,0,47,0,0,29,0,0,46,0,0,0,0 | 0,0,0,0,33,0,0,0,0,0,0,0,0,0,0,0,0,0,0,0,38,39,0,0,0,0,0,0,0,0,0,0,0,0,0,25,0,0,0,0,0,0,0,24,0,47,0,0,0,0,0,0,0,0,22,0,0,0,0,40 | 0,0,0,0,0,0,0,0,0,0,12,0,0,0,41,10,0,0,0,13,0,0,14,0,50,0,46,0,25,36,0,0,43,0,0,0,0,0,0,16,0,23,0,25,14,36,0,0,0,28,0,0,0,0,0,0,0,0,0,0 | 0,0,0,20,0,0,0,0,0,0,0,0,0,0,0,0,0,0,0,24,0,0,0,0,0,0,0,21,0,0,0,47,0,0,0,0,0,0,20,0,0,0,0,0,0,0,0,0,0,0,0,0,0,0,0,33,0,0,0,27 | 0,0,0,0,50,0,20,0,36,17,0,19,0,0,0,0,0,0,45,22,0,0,0,0,0,0,0,0,0,0,0,0,0,0,0,44,0,0,0,0,0,0,0,34,36,40,0,0,0,0,0,0,0,42,0,0,38,39,19,0 | 0,40,0,0,0,0,31,0,0,0,0,0,0,0,14,28,0,0,0,50,0,20,0,0,13,0,0,43,0,0,21,34,0,47,39,0,0,0,0,0,0,0,32,0,0,0,0,0,0,0,0,34,0,0,0,0,0,0,0,0 | 0,0,48,0,0,0,0,32,22,0,0,0,0,0,0,0,0,0,0,0,0,28,0,0,44,0,0,0,0,40,0,0,0,0,0,24,0,0,0,0,0,0,0,44,33,0,0,0,0,0,24,0,0,0,0,0,0,0,0,0 | 0,12,0,0,0,44,39,0,0,0,0,0,0,0,0,0,0,0,0,0,38,0,0,33,0,0,0,0,17,0,0,23,0,0,31,18,0,45,23,0,19,0,0,0,0,0,0,0,11,32,0,30,26,36,0,0,0,0,0,42 | 49,43,0,0,40,0,0,38,15,0,18,0,0,0,0,0,0,0,0,17,0,0,0,0,38,0,0,0,0,0,0,0,0,0,0,0,15,16,0,0,13,0,0,0,32,0,0,0,0,28,0,0,0,40,16,0,0,27,0,0 | 0,0,0,0,0,27,27,0,0,0,19,0,0,50,0,43,36,0,29,0,0,0,13,49,15,0,0,0,0,0,0,37,47,0,0,35,0,23,0,18,0,0,41,0,34,0,45,0,0,12,0,0,30,0,0,0,0,11,0,49 | 0,0,0,0,37,0,0,0,0,0,0,42,0,0,32,0,0,0,16,22,19,0,0,50,0,0,0,0,0,0,0,0,0,0,14,0,0,0,0,0,39,0,28,15,0,0,0,0,0,0,0,0,0,0,0,13,0,0,0,0 | 21,38,0,0,0,0,0,0,0,0,50,0,16,0,0,0,0,0,0,15,0,32,0,0,0,15,0,0,0,0,0,0,0,0,0,0,0,0,0,23,0,0,18,28,0,44,0,0,31,0,0,0,21,0,0,0,38,33,0,38 | 0,0,0,25,0,0,0,0,0,0,0,0,0,0,0,0,0,0,26,40,0,0,43,0,0,0,0,0,37,24,0,0,0,0,0,0,0,24,16,0,0,0,28,0,0,0,0,0,0,0,23,0,0,0,0,28,17,36,0,0 | 41,0,42,0,0,0,32,36,15,0,0,0,0,0,0,40,34,0,0,14,0,0,0,0,0,0,44,0,0,0,0,0,0,18,39,22,22,0,0,0,0,0,0,22,0,0,31,0,0,0,0,0,0,0,41,0,0,0,37,48 | 0,28,0,28,0,0,0,0,0,32,0,0,0,0,50,0,0,0,11,48,0,0,25,0,0,0,0,0,0,0,0,0,0,0,0,0,17,21,0,0,0,0,0,0,0,0,0,0,14,0,0,0,30,0,0,0,0,0,50,33 | 0,22,0,41,45,0,0,0,15,35,0,0,0,0,0,30,0,0,0,0,0,0,0,18,0,0,17,0,0,24,0,0,0,0,0,0,0,29,0,20,0,0,49,0,0,0,0,0,12,0,0,0,46,0,0,0,0,0,0,0 | 0,0,0,13,36,0,48,30,0,0,0,33,0,25,0,0,16,34,0,0,0,0,0,0,0,20,0,0,0,0,35,0,0,32,28,0,0,0,0,0,0,0,0,0,0,0,0,0,45,0,0,0,0,0,0,0,16,0,0,0 | 0,0,42,0,12,31,0,0,42,49,0,0,0,0,0,0,0,0,0,0,31,0,0,0,0,0,0,40,0,0,0,0,13,0,50,0,0,0,0,46,0,11,0,0,0,42,0,0,0,0,18,0,0,0,0,0,0,0,0,0 | 0,0,0,0,0,0,0,0,0,0,0,0,0,0,0,0,0,0,0,0,0,0,0,0,0,0,12,0,0,0,0,0,0,44,0,0,0,47,13,0,0,0,36,0,0,0,45,0,40,0,28,0,0,0,46,12,0,21,0,35 | 0,28,0,46,0,0,0,0,0,0,0,42,0,17,0,0,0,0,31,0,0,0,50,0,0,0,16,18,0,0,34,27,0,0,0,33,0,17,0,42,0,0,0,0,0,0,0,18,0,0,0,0,0,0,0,0,0,0,0,0 | 0,0,0,0,0,45,0,44,30,0,0,0,0,0,0,0,18,0,0,39,0,0,26,0,0,0,32,0,0,14,0,0,0,18,0,0,0,0,0,0,0,0,0,0,0,0,0,0,44,0,24,0,0,0,0,0,0,0,39,0 | 0,0,0,36,0,0,0,14,12,0,0,0,12,0,23,0,0,28,46,0,0,0,0,0,43,29,0,0,0,0,37,0,32,0,0,0,0,0,34,44,0,0,0,0,0,0,0,0,0,25,0,0,38,0,22,34,0,0,0,47 | 0,0,0,0,0,0,22,0,40,0,0,0,0,30,0,0,0,0,0,0,0,40,0,0,30,0,0,19,45,0,0,0,31,46,0,0,0,0,0,0,0,0,0,32,44,0,0,0,0,12,0,13,0,0,0,19,42,0,50,0 | 0,0,0,45,0,27,0,0,0,0,0,0,16,0,49,0,0,0,0,0,0,0,0,15,0,0,0,34,0,0,0,0,37,0,0,0,0,0,0,46,0,14,0,0,0,0,30,23,0,0,0,0,20,0,0,0,0,0,0,0 | 0,0,32,37,14,0,0,0,0,0,27,0,0,45,0,0,0,0,49,0,14,19,0,0,34,0,10,0,0,0,15,38,0,0,15,0,48,0,0,36,0,45,0,0,0,34,27,0,0,37,0,0,0,0,0,0,0,0,0,10 | 0,0,0,0,0,0,0,0,0,30,0,0,0,35,0,0,0,0,0,34,0,0,0,0,44,45,39,0,28,0,36,0,29,19,0,0,48,0,0,0,0,0,0,0,0,0,0,0,25,0,0,0,35,0,0,0,16,0,0,0 | 0,0,0,0,0,0,0,0,16,0,0,19,0,0,0,0,0,38,0,0,0,31,0,0,25,0,0,0,0,0,0,0,37,0,0,0,0,0,23,14,0,0,0,0,17,0,0,0,0,0,0,0,0,0,0,0,0,0,0,18 | 0,17,19,0,0,34,0,0,0,0,0,20,0,30,0,0,0,0,0,34,0,0,0,0,0,0,0,11,0,12,0,0,39,0,0,0,0,0,0,0,0,0,0,0,0,37,25,0,0,0,0,0,0,0,0,47,0,0,0,0 | 0,0,0,0,0,0,0,28,0,0,0,0,0,36,0,0,0,18,30,0,0,0,0,0,0,0,0,0,0,42,0,0,0,0,0,0,0,0,39,0,0,0,0,0,0,0,0,0,0,0,41,0,0,0,50,0,0,20,0,37 | 18,0,0,0,0,33,0,0,0,35,0,0,0,0,16,40,47,38,31,0,0,0,14,15,0,30,0,0,0,0,0,0,0,46,20,0,0,0,36,0,0,16,17,0,0,0,0,27,0,48,0,0,0,0,0,0,0,0,0,0 | 0,25,0,41,0,10,0,0,46,0,0,40,0,0,14,23,13,0,0,0,0,0,0,0,0,0,15,0,0,19,0,0,0,0,0,37,0,0,15,0,49,0,0,0,0,18,0,32,0,0,0,18,0,0,0,11,0,0,0,0 | 0,0,0,0,46,20,0,46,0,42,10,40,0,0,12,0,0,0,0,0,0,0,0,33,13,43,0,0,39,0,0,0,39,22,0,0,0,33,0,0,0,44,0,10,0,44,0,0,0,0,34,0,0,43,0,0,0,0,27,24 | 0,0,0,0,0,16,0,0,0,0,18,26,0,0,0,0,0,0,22,47,16,39,0,32,0,29,0,0,29,0,0,30,25,0,0,29,0,0,35,0,0,0,16,0,10,24,35,0,0,0,0,0,0,14,38,0,31,39,46,0 | 0,0,0,0,0,0,0,0,49,0,28,0,0,0,34,22,0,0,44,0,0,0,0,0,0,0,0,0,30,0,27,40,0,0,0,0,25,0,0,0,24,0,0,0,0,0,25,0,0,0,0,32,0,0,0,41,0,12,24,0 | 40,49,18,0,30,19,0,0,0,0,0,0,0,0,0,29,0,0,0,0,0,0,0,0,0,0,0,0,0,0,0,0,0,10,0,0,0,0,0,48,0,0,0,0,41,14,30,15,0,0,0,0,23,14,0,0,0,38,0,0 | 0,0,0,0,40,0,0,0,38,12,0,0,0,20,0,14,0,0,48,0,0,0,0,0,0,0,31,22,0,0,0,0,0,0,35,0,0,33,15,0,0,0,11,50,0,17,0,0,0,0,44,0,0,0,12,0,0,27,0,16 | 32,0,0,0,13,0,0,0,0,0,0,0,0,12,0,0,0,0,0,38,20,0,0,37,37,50,48,0,0,0,34,0,0,0,0,0,49,0,0,19,47,0,0,16,0,28,0,0,0,0,0,0,0,35,48,0,0,0,0,0 | 40,0,0,29,0,0,0,0,0,29,0,0,0,0,0,0,23,0,0,0,0,0,20,42,0,0,0,0,22,0,39,33,0,0,0,0,0,11,41,0,40,0,0,26,0,0,0,0,46,0,24,0,0,0,0,10,0,21,0,26 | 0,0,0,0,0,0,0,0,29,0,0,0,42,0,0,0,0,0,0,0,0,0,0,0,0,0,0,0,43,34,0,0,0,0,0,0,0,0,0,0,0,0,46,0,0,0,0,0,0,0,0,0,45,16,0,0,0,0,0,0 | 0,0,24,0,0,0,0,0,0,0,0,0,0,0,22,0,0,0,0,19,22,0,0,0,0,21,0,0,0,50,38,0,0,20,0,0,49,0,0,0,0,44,33,0,0,0,0,10,0,32,0,42,0,12,0,0,0,0,0,0 | 0,0,0,0,35,24,0,11,0,33,0,0,0,0,0,0,0,16,0,17,0,0,0,0,50,36,0,0,0,0,16,0,0,0,0,0,0,0,0,0,0,0,45,0,40,0,15,0,0,0,15,0,16,0,0,0,0,0,21,0 | 0,0,0,0,12,18,0,32,0,0,0,0,0,0,35,0,0,0,0,0,0,0,13,0,0,47,0,0,0,0,0,0,0,0,0,0,0,0,0,0,30,43,0,0,0,0,0,0,0,0,25,0,0,0,45,0,0,20,0,0 | 0,41,0,0,0,0,0,0,0,38,0,0,0,0,41,0,35,0,0,15,0,0,0,0,0,0,0,0,0,0,0,0,0,0,0,0,0,24,32,0,0,0,0,0,20,0,0,0,0,0,17,0,0,0,0,0,36,50,0,0 | 0,0,0,0,41,13,0,0,0,0,0,0,0,18,48,0,0,0,0,0,0,35,0,0,0,36,0,0,0,0,0,0,0,0,23,0,0,0,0,0,0,0,0,0,0,32,0,0,0,0,0,0,0,0,0,16,19,13,20,0 | 0,13,0,0,0,38,45,0,0,0,28,0,34,0,0,0,0,0,26,38,0,0,0,0,0,0,0,0,0,0,14,21,0,12,0,0,47,0,39,0,19,0,0,0,0,0,0,0,0,30,0,0,0,0,44,0,24,0,0,0 | 0,0,0,0,0,0,0,32,0,0,0,0,0,0,0,0,0,0,0,0,0,0,0,0,0,22,0,16,44,0,0,50,0,0,0,44,0,0,0,0,0,19,31,14,26,0,0,26,0,0,0,0,0,10,0,0,0,0,0,42 | 29,0,0,0,0,0,20,0,35,0,0,0,0,0,0,0,0,0,0,45,12,48,0,0,23,0,0,0,0,0,0,24,0,0,46,0,0,0,0,0,0,0,16,47,0,0,25,49,22,0,0,0,0,0,0,0,0,0,25,0 | 0,0,0,0,0,0,0,0,0,0,48,27,0,44,50,14,0,0,0,0,0,0,12,0,0,0,0,0,0,47,0,0,0,0,0,0,0,0,0,0,42,20,46,0,0,0,0,0,41,26,0,23,0,0,0,0,0,30,43,0 | 0,0,0,0,0,0,0,0,26,0,0,0,0,0,0,0,0,0,20,42,0,21,48,0,24,0,0,40,0,0,0,0,18,0,50,0,0,20,0,35,0,0,28,0,48,0,0,36,0,0,0,42,0,0,0,0,0,34,11,42 | 0,0,0,49,0,0,0,0,18,0,0,37,0,0,43,0,0,0,0,0,0,0,0,0,0,0,0,0,48,0,0,10,0,10,0,30,0,37,0,0,0,0,0,0,0,0,0,0,0,0,0,0,0,0,0,0,0,0,0,0 | 0,23,0,0,0,0,0,34,0,15,0,0,0,26,15,0,0,0,0,0,0,0,21,0,0,43,0,48,0,0,0,0,0,0,0,27,0,0,0,0,0,0,15,0,0,0,0,0,0,22,0,0,21,0,14,0,0,42,0,0 | 0,0,0,0,0,0,0,0,0,0,0,17,0,0,0,24,0,0,0,0,0,0,0,0,0,0,0,30,0,0,0,0,0,0,0,25,0,22,0,0,0,0,15,0,0,0,0,0,40,0,0,0,0,0,0,42,0,46,43,0 | 0,0,0,0,0,17,0,0,0,23,0,33,0,0,0,40,0,0,37,33,0,0,0,0,0,0,0,0,0,0,0,19,0,36,0,0,0,0,0,0,0,0,0,0,0,26,0,0,0,0,0,0,0,0,17,0,0,0,0,0 | 0,0,0,0,0,0,0,49,0,0,20,0,0,0,0,0,0,31,30,0,0,0,0,0,0,0,0,0,0,11,25,0,0,0,20,0,40,0,35,0,0,49,34,0,28,0,43,0,32,0,0,0,0,0,0,0,0,0,48,0 | 0,0,0,0,0,0,0,15,0,0,0,0,18,0,0,41,0,0,37,0,0,0,0,45,0,34,0,15,0,49,0,0,0,0,0,0,0,28,39,0,0,0,11,44,16,0,38,0,19,23,0,0,0,0,0,0,0,0,0,35 | 40,26,0,0,25,0,0,12,16,0,0,0,0,0,0,0,45,0,0,0,13,0,17,37,0,27,0,0,12,0,0,0,15,41,49,0,0,0,32,0,0,0,24,0,0,0,0,0,0,34,0,12,0,0,0,0,21,0,0,0 | 0,0,0,43,28,0,0,0,0,0,0,0,0,0,0,0,44,0,41,0,28,0,0,43,0,18,12,41,12,0,0,0,0,0,0,0,0,23,0,0,0,0,0,0,0,0,0,0,49,0,14,0,23,0,24,0,43,0,0,0 | 0,0,0,0,0,0,0,0,21,0,0,0,0,0,0,0,0,0,0,0,0,0,0,44,45,0,0,0,0,0,0,0,0,0,0,0,0,30,27,0,0,0,0,39,0,33,0,26,0,35,0,14,0,0,46,0,29,46,0,0 | 0,0,0,0,0,24,0,0,0,0,0,43,44,0,0,0,35,0,0,0,37,0,0,15,0,0,0,0,0,0,0,0,0,35,0,49,0,0,27,0,0,0,36,0,0,0,0,29,32,0,0,0,12,0,33,15,13,49,0,0 | 0,17,0,0,0,0,44,0,0,0,0,11,0,0,0,0,22,0,0,10,27,0,0,0,28,0,0,34,0,0,0,0,0,22,0,0,0,25,0,0,0,0,32,0,0,0,0,0,26,0,0,0,45,0,31,0,0,34,0,0 | 0,0,0,0,0,0,0,0,18,0,0,18,0,0,0,19,0,0,14,0,0,30,0,11,0,0,0,0,0,0,0,0,0,0,21,49,0,0,0,0,11,0,0,0,0,0,0,0,0,0,22,36,0,27,0,22,0,38,0,0 | 0,0,35,0,0,0,0,0,0,0,0,0,0,16,0,0,25,0,0,0,0,0,0,28,0,0,0,0,28,0,43,0,0,0,42,47,0,0,36,0,39,0,0,39,30,0,0,0,0,17,0,0,34,0,0,0,45,0,0,0 | 0,0,19,13,0,0,0,0,0,18,0,26,41,0,0,41,47,0,0,0,0,45,0,0,0,21,32,12,0,0,0,0,36,0,28,0,0,0,0,39,0,0,29,0,0,0,0,0,40,27,0,0,23,0,50,0,48,0,0,0 | 0,0,0,0,0,46,0,0,0,0,0,28,0,11,0,0,0,49,0,0,0,0,0,22,0,0,29,0,0,31,0,0,0,21,31,0,0,0,18,0,0,0,0,0,0,0,0,0,0,0,0,0,31,0,0,0,0,0,34,0 | 0,0,0,0,0,0,0,0,36,25,0,0,0,0,33,0,0,0,0,40,0,31,0,0,0,0,16,0,0,0,12,0,0,0,12,0,0,39,0,29,29,0,22,27,0,0,0,0,17,49,0,44,0,0,28,0,29,0,0,0 | 40,0,34,37,0,0,0,0,0,0,0,0,44,39,0,39,29,0,0,0,24,49,0,0,31,0,0,0,40,40,0,32,0,16,0,0,45,0,0,0,0,0,0,0,0,0,0,0,0,0,0,0,0,14,0,0,0,48,0,0 | 0,35,16,0,0,0,0,0,23,0,0,0,0,19,0,0,0,0,0,30,0,0,0,0,0,0,0,0,0,0,0,0,0,45,0,45,0,0,0,0,47,0,0,0,0,0,0,0,34,0,0,0,0,0,10,11,41,0,0,18 | 0,0,0,0,0,0,42,0,0,0,37,0,0,0,42,0,0,0,12,0,0,40,0,43,0,0,0,0,49,40,0,0,0,0,0,0,0,0,0,39,0,0,0,0,0,0,0,48,0,0,0,40,0,0,0,0,0,41,42,27 | 0,0,0,0,0,0,0,0,0,0,25,0,0,0,0,19,0,0,0,0,0,0,0,0,46,0,0,0,0,20,0,0,0,0,0,34,0,37,38,0,0,0,0,44,0,0,0,0,0,0,0,47,0,0,0,0,0,31,0,0 | 0,10,0,16,0,0,0,0,0,49,48,0,0,0,0,0,48,46,0,17,0,0,0,0,0,0,0,0,0,0,0,14,0,34,0,26,14,0,0,0,41,44,0,16,0,0,14,26,0,41,50,12,0,0,0,0,0,0,0,0 | 0,0,0,0,0,40,44,0,0,0,0,0,0,44,0,0,0,0,0,45,34,0,0,0,32,0,0,0,12,47,34,44,0,0,0,0,0,31,12,0,43,0,0,0,47,14,19,0,49,18,50,29,0,49,47,16,48,0,22,0 | 0,0,0,0,0,0,23,0,0,0,19,0,33,0,0,0,16,0,0,0,41,10,15,0,0,0,0,0,0,19,0,0,0,0,0,21,0,0,29,0,25,43,0,0,0,0,0,0,0,13,19,0,0,0,12,33,0,0,0,0 | 0,13,0,11,0,25,0,0,0,30,17,0,36,0,0,40,0,37,49,0,0,22,0,0,18,46,18,39,0,31,28,0,0,0,0,45,0,43,0,0,0,0,0,0,0,30,0,47,0,0,0,0,40,0,0,0,0,0,0,41 | 45,0,0,0,32,0,0,40,0,39,0,0,39,0,35,33,0,0,50,31,0,0,0,0,0,0,15,0,0,0,0,0,0,34,0,0,0,45,0,0,0,31,17,0,0,0,0,0,0,0,0,0,0,0,33,0,0,0,44,0 | 0,0,0,0,0,0,0,39,35,0,0,0,27,19,0,0,0,0,0,0,0,32,0,0,22,24,0,0,0,0,0,0,0,0,0,0,0,0,0,0,0,33,0,0,32,0,0,0,44,0,0,0,0,0,25,30,0,0,0,12 | 0,0,38,0,29,11,0,0,39,0,44,0,0,0,0,0,0,0,0,46,0,0,0,40,0,45,11,0,0,0,13,0,43,27,15,0,0,0,42,0,0,0,0,33,0,0,0,0,32,0,0,0,38,0,0,0,37,0,0,0 | 0,29,0,0,0,47,0,36,0,0,39,0,0,21,0,0,0,0,0,0,0,0,10,29,0,0,0,0,0,0,0,0,17,0,0,0,0,0,0,0,0,0,0,0,0,0,26,13,39,0,20,33,0,0,0,0,0,0,0,0 | 16,0,30,0,0,0,0,0,0,47,0,18,0,0,0,0,0,19,0,0,0,0,0,0,0,0,0,0,0,0,18,0,0,0,0,0,0,0,0,0,0,17,19,0,0,15,0,0,11,0,0,16,42,0,0,0,29,0,0,0 | 0,22,32,19,0,0,0,0,42,0,0,0,47,0,0,0,0,44,16,0,0,0,0,0,16,32,0,0,0,0,0,0,0,0,0,0,0,0,41,28,0,0,0,0,36,0,0,14,0,0,0,0,41,0,0,0,0,35,0,0 | 20,22,0,0,0,37,0,0,0,0,0,0,0,0,0,0,0,0,0,0,26,0,18,13,0,0,21,0,0,49,0,0,0,0,0,0,0,0,0,0,0,0,12,0,0,38,0,0,0,45,0,0,0,37,34,0,41,0,0,0 | 0,0,0,0,0,0,0,0,0,0,12,33,0,0,50,0,32,0,0,25,29,0,0,29,20,30,37,0,0,0,0,0,0,0,0,0,0,23,0,0,0,0,0,0,0,0,0,0,0,0,0,46,0,15,0,0,0,0,0,0 | 0,0,29,0,0,0,0,0,0,0,0,0,0,0,0,41,39,0,0,0,0,0,0,0,22,0,19,0,0,0,0,0,0,0,0,0,0,48,25,22,29,0,0,0,0,20,0,27,0,12,0,0,15,0,0,36,0,0,0,0 | 0,0,46,0,0,0,0,0,0,0,0,17,0,0,0,0,0,0,0,16,27,0,0,0,0,0,0,0,0,0,0,0,0,0,0,0,48,13,0,0,45,0,0,0,0,0,0,38,0,0,0,0,0,25,0,0,38,0,0,0 | 0,15,0,0,0,0,0,0,0,0,0,0,0,0,0,0,0,0,13,0,38,0,35,29,0,20,18,0,0,0,0,0,0,0,0,0,0,36,0,0,0,0,0,11,0,0,0,0,0,20,49,0,0,33,46,43,0,0,0,0 | 23,27,0,0,23,0,0,0,0,0,0,28,0,38,0,0,0,0,18,0,0,0,34,0,0,0,13,25,0,0,0,0,0,0,0,42,0,0,0,0,0,0,0,0,0,0,0,30,0,0,0,0,0,0,0,0,0,0,0,0 | 0,0,0,0,41,0,50,0,19,21,26,39,0,0,0,32,0,0,0,19,15,28,20,0,0,0,0,10,0,0,0,41,0,0,17,0,0,0,0,15,0,0,0,0,0,0,0,49,0,0,0,0,0,0,13,0,0,0,0,0 | 0,26,35,23,35,0,0,0,41,0,0,0,0,0,0,33,0,0,0,0,0,0,0,0,0,0,0,31,0,0,0,0,0,0,0,39,0,0,0,18,0,0,37,0,14,0,0,0,0,0,0,0,0,0,0,39,21,0,36,0 | 0,0,0,0,0,0,0,0,21,48,0,0,0,35,20,0,0,0,0,0,0,0,0,0,0,0,0,0,18,17,0,0,11,19,0,0,0,0,29,0,37,20,0,0,0,0,38,0,46,0,0,0,37,0,0,0,0,0,0,0 | 0,0,0,0,0,0,0,0,0,0,36,0,49,0,0,0,28,0,0,0,0,0,0,0,0,0,0,0,0,0,0,0,0,0,0,0,23,0,0,0,22,41,36,0,0,45,11,0,0,0,42,14,0,24,24,0,0,0,0,0 | 0,0,0,0,0,13,0,0,0,0,16,0,0,0,45,16,17,0,0,28,0,0,0,0,33,0,22,0,0,0,40,0,0,33,0,0,0,43,0,37,0,0,0,0,0,0,19,0,0,0,31,0,0,13,0,19,0,50,0,0 | 0,0,0,0,0,0,0,0,0,0,0,0,35,0,44,0,0,0,0,0,0,0,0,44,0,0,0,44,0,45,0,0,0,44,0,29,0,0,13,0,0,0,17,0,0,31,0,0,0,0,0,0,0,0,0,0,0,0,0,0 | 0,30,0,33,0,37,0,13,0,23,0,0,0,0,0,0,0,0,0,0,0,0,0,0,18,0,0,0,0,0,0,0,20,0,0,0,0,0,46,0,0,29,0,0,0,0,47,0,0,0,0,41,45,0,0,0,0,0,0,0 | 0,0,0,0,0,0,0,0,0,0,0,0,0,35,0,38,0,0,0,0,0,0,0,0,45,49,0,0,0,0,0,0,44,11,0,47,0,0,0,0,11,0,11,0,0,0,16,0,0,15,36,0,30,13,0,19,0,0,0,0 | 22,48,0,0,0,0,13,0,0,11,0,11,0,0,0,45,0,46,0,50,0,0,44,0,0,0,0,0,0,39,0,0,0,13,0,0,0,0,0,0,0,0,0,44,0,0,0,18,0,0,0,42,0,0,0,0,0,0,0,30 | 0,0,0,18,0,40,10,0,0,0,0,0,0,0,0,11,0,0,0,34,0,0,10,33,0,0,11,0,0,0,49,0,0,41,0,41,0,0,22,0,0,27,0,0,0,0,0,0,0,18,0,46,0,0,0,0,0,44,0,0 | 0,37,0,0,30,0,0,0,0,0,0,0,0,27,0,0,0,0,0,0,0,0,37,0,0,31,0,0,40,0,50,0,0,40,31,0,0,0,14,0,0,0,0,0,13,0,0,0,0,0,38,49,0,13,0,0,0,36,48,0 | 0,0,0,0,0,11,0,0,16,14,0,0,0,42,0,0,0,0,12,29,0,0,0,0,0,0,40,0,0,0,47,0,25,0,0,0,0,22,0,14,0,0,0,0,0,0,0,0,0,0,39,0,0,0,0,0,0,0,40,0 | 0,0,0,21,0,10,11,0,38,47,0,0,0,28,26,0,0,0,11,26,0,18,0,0,23,0,33,0,0,0,0,0,0,19,0,22,34,0,0,0,0,0,0,0,0,0,25,27,0,0,0,0,15,0,0,0,34,0,0,0 | 0,0,0,0,0,0,0,0,0,0,0,24,0,0,23,0,0,0,0,0,0,15,0,0,12,0,0,0,0,0,0,0,0,24,0,15,0,0,0,27,0,14,0,0,0,0,0,0,0,0,48,0,0,0,0,0,29,0,0,0 | 0,0,0,42,0,0,0,23,0,0,0,0,0,0,0,0,36,38,0,18,0,10,0,0,0,37,0,0,0,0,0,12,0,31,0,0,0,0,0,0,0,34,16,0,0,0,0,45,48,0,14,0,0,28,0,13,0,30,0,0 | 17,36,0,23,23,0,0,0,46,0,0,0,0,0,19,0,0,0,31,0,0,0,0,0,0,0,0,0,0,0,0,0,25,49,0,0,0,46,12,20,0,0,0,0,0,0,41,0,0,33,16,0,0,0,23,0,0,39,0,0 | 0,0,17,0,39,0,45,0,0,0,0,0,11,0,17,0,0,10,0,32,12,0,0,0,50,0,0,0,0,0,0,10,34,0,0,0,15,11,0,0,14,16,0,0,20,42,30,0,0,0,0,0,0,16,0,35,0,23,0,27 | 0,0,23,0,0,0,0,0,0,0,0,0,30,0,0,0,0,0,0,0,0,0,0,0,0,0,0,0,0,47,0,11,0,0,0,0,0,0,33,0,34,12,48,0,0,0,30,0,0,0,0,0,0,31,0,13,0,0,24,0 | 0,0,0,41,22,19,0,21,0,0,0,15,0,0,22,21,0,0,0,0,40,33,0,38,0,0,0,40,34,0,29,0,21,0,0,0,0,0,18,0,22,42,0,0,0,0,0,0,0,0,0,12,0,46,37,0,0,0,0,0 | 0,0,34,0,0,12,0,0,0,19,0,0,0,0,0,0,0,15,0,0,0,0,0,0,37,37,0,0,0,0,0,0,0,0,0,50,0,0,0,0,35,0,20,0,14,0,0,0,0,0,21,0,21,0,46,0,13,0,0,36 | 0,0,50,28,17,0,0,0,0,0,13,0,0,0,0,23,0,48,0,0,0,0,0,0,0,0,0,0,33,0,0,32,0,0,35,0,0,48,43,0,0,0,0,0,0,0,0,50,0,0,33,0,0,0,0,41,0,0,37,0 | 0,0,0,0,34,0,19,0,0,0,0,41,0,0,0,0,0,38,0,0,0,20,0,0,37,0,30,0,0,26,0,0,0,0,0,0,0,0,0,46,0,0,0,0,0,0,0,0,0,0,0,17,0,31,0,0,0,33,30,0 | 0,13,0,34,0,0,0,0,0,0,0,35,39,0,0,0,39,28,12,0,0,0,46,0,0,0,0,0,0,0,0,24,0,21,0,0,0,0,0,11,0,0,0,0,0,0,0,0,0,45,0,47,0,29,0,18,0,0,0,22 | 0,46,19,0,0,0,13,40,13,42,0,0,0,0,0,25,0,0,0,34,0,0,0,39,0,0,0,0,0,15,42,47,0,0,0,0,0,40,0,0,0,30,44,11,0,0,0,0,47,0,0,0,0,17,48,0,38,0,18,0 | 0,26,0,17,0,0,0,0,0,29,43,0,0,0,41,0,0,0,0,0,16,0,12,29,0,18,0,32,0,0,0,0,0,0,39,26,0,0,23,27,0,0,33,0,0,0,19,0,0,0,0,27,17,0,0,0,31,0,24,0 | 24,0,17,29,0,0,32,0,0,0,0,0,34,44,0,0,0,0,0,0,0,0,46,0,50,0,0,48,0,0,0,0,0,0,0,0,0,0,50,0,0,0,0,15,25,0,13,28,0,0,0,0,0,0,0,0,0,0,0,0 | 0,0,0,0,0,0,0,43,0,38,0,0,0,0,14,0,32,0,0,0,0,25,0,0,0,0,0,0,50,0,29,0,0,0,0,0,0,0,10,0,0,0,21,0,37,0,42,0,0,0,26,35,0,0,0,0,0,0,0,0 | 37,22,28,35,0,0,22,0,0,0,41,0,0,0,0,0,0,0,0,0,0,16,0,32,0,0,31,0,0,40,0,0,0,19,0,27,0,0,0,37,16,0,0,47,0,17,12,0,19,0,0,13,0,0,0,0,37,0,0,0 | 0,0,0,0,0,0,12,30,40,0,0,0,0,0,0,10,0,0,33,0,0,0,0,0,0,34,16,48,47,0,0,0,38,0,44,0,0,0,0,0,18,45,0,0,0,0,0,0,0,0,37,36,0,0,0,27,0,12,0,22 | 0,0,0,0,0,42,0,0,0,0,20,0,0,42,0,0,0,0,27,0,12,0,0,0,0,0,13,0,23,0,32,0,0,0,0,0,0,49,0,0,0,32,27,11,0,0,0,0,34,0,0,0,0,38,27,50,0,0,24,0 | 0,40,21,0,0,46,0,0,0,20,0,0,0,19,25,0,0,0,0,10,0,0,10,0,0,25,0,0,0,0,0,16,0,0,0,18,0,0,0,31,0,44,0,0,12,28,36,24,37,0,0,0,0,0,0,0,0,0,0,28 |];
